14798
1 1 1 1 1 1 1 0 1 1
4 2 2 9 2 4 4 6 5 0 4 6 3 9 2 4 6 4 8 0 8 6 2 5 2 1 6 4 8 8 4 0 3 5 8 1 6 4 9 0 4 2 2 3 2 1 4 4 5 0 4 9 2 3 2 4 6 3 5 0 4 9 3 4 2 4 8 1 9 0 4 0 2 3 2 1 6 4 9 0 4 9 2 5 2 0 6 1 9 0 4 0 2 3 2 1 4 4 8 5